certificates/rado_a7_c89_N15.cnf
c Rad2 upper bound instance: x1 + 7*x2 - x3 = 89, interval [1,15]
p cnf 15 62
1 3 13 0
-1 -3 -13 0
1 10 14 0
-1 -10 -14 0
2 4 13 0
-2 -4 -13 0
2 11 14 0
-2 -11 -14 0
3 5 13 0
-3 -5 -13 0
3 12 14 0
-3 -12 -14 0
4 6 13 0
-4 -6 -13 0
4 13 14 0
-4 -13 -14 0
5 7 13 0
-5 -7 -13 0
5 14 0
-5 -14 0
1 6 12 0
-1 -6 -12 0
6 8 13 0
-6 -8 -13 0
6 14 15 0
-6 -14 -15 0
2 7 12 0
-2 -7 -12 0
7 9 13 0
-7 -9 -13 0
3 8 12 0
-3 -8 -12 0
8 10 13 0
-8 -10 -13 0
4 9 12 0
-4 -9 -12 0
9 11 13 0
-9 -11 -13 0
5 10 12 0
-5 -10 -12 0
10 12 13 0
-10 -12 -13 0
6 11 12 0
-6 -11 -12 0
11 13 0
-11 -13 0
7 12 0
-7 -12 0
12 13 14 0
-12 -13 -14 0
1 11 13 0
-1 -11 -13 0
8 12 13 0
-8 -12 -13 0
13 15 0
-13 -15 0
9 12 14 0
-9 -12 -14 0
3 11 15 0
-3 -11 -15 0
10 12 15 0
-10 -12 -15 0
