certificates/rado_a7_c89_N15.drat
14 13 0
d 4 14 13 0
3 13 0
d 3 5 13 0
-15 0
13 0
-11 0
3 0
-1 0
-5 0
14 0
-12 0
-4 0
7 0
10 0
6 0
9 0
0
